data/solutions/planning/wellformed/intermediate/weighting/wellformed_intermediate_instance94_gurobi.sol
Elapsed time: 1000.33
Nodes explored: 616135
Nodes left: 218926
Relative gap: 1.693
Upper bound: 8335714164.0
Lower bound: 8194627455
C[0]=128207.0
C[1]=126254.0
C[2]=126236.0
C[3]=126141.0
C[4]=126073.0
C[5]=125775.0
C[6]=125749.0
C[7]=125392.0
C[8]=125012.0
C[9]=124849.0
C[10]=124504.0
C[11]=123799.0
C[12]=123616.0
C[13]=123346.0
C[14]=123049.0
C[15]=122666.0
y[0]=5
y[1]=14
y[2]=1
y[3]=1
y[4]=1
y[5]=10
y[6]=12
y[7]=0
y[8]=1
y[9]=2
y[10]=7
y[11]=3
y[12]=1
y[13]=9
y[14]=4
y[15]=1
y[16]=1
y[17]=7
y[18]=1
y[19]=1
y[20]=9
y[21]=1
y[22]=6
y[23]=4
y[24]=2
y[25]=15
y[26]=2
y[27]=13
y[28]=6
y[29]=6
y[30]=9
y[31]=11
y[32]=3
y[33]=1
y[34]=13
y[35]=1
y[36]=0
y[37]=14
y[38]=15
y[39]=8
y[40]=4
y[41]=10
y[42]=2
y[43]=1
y[44]=15
y[45]=12
y[46]=14
y[47]=1
y[48]=7
y[49]=11
y[50]=3
y[51]=2
y[52]=1
y[53]=10
y[54]=11
y[55]=7
y[56]=6
y[57]=6
y[58]=1
y[59]=10
y[60]=9
y[61]=13
y[62]=3
y[63]=3
y[64]=0
y[65]=5
y[66]=1
y[67]=3
y[68]=1
y[69]=11
y[70]=2
y[71]=0
y[72]=5
y[73]=9
y[74]=4
y[75]=2
y[76]=3
y[77]=10
y[78]=4
y[79]=10
y[80]=4
y[81]=5
y[82]=5
y[83]=15
y[84]=13
y[85]=15
y[86]=12
y[87]=4
y[88]=7
y[89]=0
y[90]=2
y[91]=8
y[92]=15
y[93]=14
y[94]=6
y[95]=11
y[96]=12
y[97]=13
y[98]=3
y[99]=7
y[100]=13
y[101]=1
y[102]=1
y[103]=6
y[104]=8
y[105]=6
y[106]=0
y[107]=3
y[108]=15
y[109]=5
y[110]=9
y[111]=15
y[112]=13
y[113]=10
y[114]=8
y[115]=9
y[116]=8
y[117]=6
y[118]=14
y[119]=6
y[120]=14
y[121]=2
y[122]=14
y[123]=14
y[124]=13
y[125]=12
y[126]=12
y[127]=10
y[128]=8
y[129]=10
y[130]=15
y[131]=7
y[132]=3
y[133]=0
y[134]=2
y[135]=14
y[136]=15
y[137]=13
y[138]=2
y[139]=11
y[140]=11
y[141]=11
y[142]=14
y[143]=3
y[144]=2
y[145]=7
y[146]=10
y[147]=3
y[148]=13
y[149]=9
y[150]=15
y[151]=10
y[152]=11
y[153]=5
y[154]=7
y[155]=13
y[156]=4
y[157]=9
y[158]=12
y[159]=4
y[160]=8
y[161]=15
y[162]=1
y[163]=8
y[164]=15
y[165]=5
y[166]=5
y[167]=10
y[168]=3
y[169]=13
y[170]=8
y[171]=15
y[172]=13
y[173]=10
y[174]=9
y[175]=0
y[176]=15
y[177]=11
y[178]=8
y[179]=1
y[180]=10
y[181]=11
y[182]=10
y[183]=4
y[184]=0
y[185]=1
y[186]=13
y[187]=7
y[188]=15
y[189]=2
y[190]=9
y[191]=15
y[192]=12
y[193]=8
y[194]=2
y[195]=9
y[196]=9
y[197]=7
y[198]=3
y[199]=4
y[200]=3
y[201]=10
y[202]=10
y[203]=11
y[204]=15
y[205]=12
y[206]=9
y[207]=4
y[208]=3
y[209]=10
y[210]=2
y[211]=7
y[212]=7
y[213]=9
y[214]=1
y[215]=12
y[216]=15
y[217]=8
y[218]=0
y[219]=12
y[220]=6
y[221]=2
y[222]=1
y[223]=15
y[224]=15
y[225]=5
y[226]=11
y[227]=14
y[228]=4
y[229]=14
y[230]=4
y[231]=15
y[232]=8
y[233]=6
y[234]=13
y[235]=1
y[236]=9
y[237]=12
y[238]=12
y[239]=7
y[240]=3
y[241]=15
y[242]=9
y[243]=15
y[244]=1
y[245]=1
y[246]=14
y[247]=2
y[248]=15
y[249]=6
y[250]=10
y[251]=9
y[252]=14
y[253]=8
y[254]=8
y[255]=8
y[256]=3
y[257]=7
y[258]=12
y[259]=2
y[260]=1
y[261]=6
y[262]=2
y[263]=8
y[264]=13
y[265]=5
y[266]=9
y[267]=11
y[268]=5
y[269]=8
y[270]=0
y[271]=2
y[272]=4
y[273]=5
y[274]=4
y[275]=3
y[276]=13
y[277]=2
y[278]=7
y[279]=1
y[280]=2
y[281]=4
y[282]=13
y[283]=6
y[284]=6
y[285]=3
y[286]=5
y[287]=12
y[288]=0
y[289]=2
y[290]=13
y[291]=14
y[292]=3
y[293]=4
y[294]=15
y[295]=2
y[296]=15
y[297]=11
y[298]=13
y[299]=4
y[300]=8
y[301]=15
y[302]=8
y[303]=5
y[304]=0
y[305]=10
y[306]=14
y[307]=2
y[308]=10
y[309]=4
y[310]=12
y[311]=2
y[312]=7
y[313]=8
y[314]=15
y[315]=6
y[316]=9
y[317]=10
y[318]=8
y[319]=3
y[320]=8
y[321]=11
y[322]=9
y[323]=10
y[324]=11
y[325]=15
y[326]=6
y[327]=5
y[328]=11
y[329]=0
y[330]=7
y[331]=15
y[332]=5
y[333]=12
y[334]=3
y[335]=5
y[336]=14
y[337]=2
y[338]=8
y[339]=5
y[340]=11
y[341]=7
y[342]=5
y[343]=15
y[344]=0
y[345]=1
y[346]=14
y[347]=12
y[348]=3
y[349]=7
y[350]=1
y[351]=1
y[352]=1
y[353]=1
y[354]=9
y[355]=4
y[356]=6
y[357]=7
y[358]=15
y[359]=2
y[360]=5
y[361]=6
y[362]=9
y[363]=13
y[364]=10
y[365]=12
y[366]=9
y[367]=10
y[368]=9
y[369]=0
y[370]=14
y[371]=11
y[372]=7
y[373]=3
y[374]=2
y[375]=14
y[376]=2
y[377]=10
y[378]=8
y[379]=0
y[380]=7
y[381]=1
y[382]=4
y[383]=6
y[384]=6
y[385]=2
y[386]=12
y[387]=7
y[388]=12
y[389]=7
y[390]=15
y[391]=15
y[392]=14
y[393]=2
y[394]=15
y[395]=14
y[396]=4
y[397]=8
y[398]=3
y[399]=4
