data/solutions/planning/wellformed/intermediate/weighting/wellformed_intermediate_instance94_gurobi.log

Gurobi 6.5.2 (linux64) logging started Sat Mar  3 17:04:47 2018

Changed value of parameter LogFile to data/solutions/planning/wellformed/intermediate/weighting/wellformed_intermediate_instance94_gurobi.log
   Prev: gurobi.log  Default: 
Changed value of parameter Threads to 1
   Prev: 0  Min: 0  Max: 1024  Default: 0
Optimize a model with 432 rows, 6417 columns and 12847 nonzeros
Coefficient statistics:
  Matrix range    [1e+00, 1e+04]
  Objective range [1e+00, 3e+04]
  Bounds range    [1e+00, 1e+00]
  RHS range       [1e+00, 1e+00]
Found heuristic solution: objective 4.90067e+10
Presolve removed 3 rows and 3 columns
Presolve time: 0.02s
Presolved: 429 rows, 6414 columns, 12842 nonzeros
Variable types: 0 continuous, 6414 integer (6400 binary)

Root relaxation: objective 8.194611e+09, 659 iterations, 0.01 seconds

    Nodes    |    Current Node    |     Objective Bounds      |     Work
 Expl Unexpl |  Obj  Depth IntInf | Incumbent    BestBd   Gap | It/Node Time

     0     0 8.1946e+09    0   37 4.9007e+10 8.1946e+09  83.3%     -    0s
H    0     0                    1.526319e+10 8.1946e+09  46.3%     -    0s
     0     0 8.1946e+09    0   53 1.5263e+10 8.1946e+09  46.3%     -    0s
     0     0 8.1946e+09    0   53 1.5263e+10 8.1946e+09  46.3%     -    0s
     0     0 8.1946e+09    0   60 1.5263e+10 8.1946e+09  46.3%     -    0s
     0     0 8.1946e+09    0   46 1.5263e+10 8.1946e+09  46.3%     -    0s
     0     2 8.1946e+09    0   38 1.5263e+10 8.1946e+09  46.3%     -    0s
H   27    27                    8.847581e+09 8.1946e+09  7.38%   8.9    0s
H  339   339                    8.594375e+09 8.1946e+09  4.65%   2.8    0s
H 1568  1485                    8.594373e+09 8.1946e+09  4.65%   5.1    2s
H 1576  1416                    8.463875e+09 8.1946e+09  3.18%   6.9    3s
H 1643  1390                    8.463748e+09 8.1946e+09  3.18%   7.0    4s
H 1857  1381                    8.409397e+09 8.1946e+09  2.55%   6.5    4s
  1986  1469 8.2566e+09  334   30 8.4094e+09 8.1946e+09  2.55%   6.2    5s
H 2317  1614                    8.409025e+09 8.1946e+09  2.55%   5.9    5s
  4087  2596 8.1953e+09  665   23 8.4090e+09 8.1946e+09  2.55%   5.0   10s
  7371  5378 8.1962e+09  763   24 8.4090e+09 8.1946e+09  2.55%   4.9   15s
 10626  8496 8.3188e+09  105   28 8.4090e+09 8.1946e+09  2.55%   4.8   20s
 14398 12208 8.2983e+09 1521   25 8.4090e+09 8.1946e+09  2.55%   5.7   25s
H14676 12457                    8.409020e+09 8.1946e+09  2.55%   5.8   25s
H14680 12461                    8.408981e+09 8.1946e+09  2.55%   5.8   25s
H14744 12356                    8.376379e+09 8.1946e+09  2.17%   5.8   25s
*14858 12441            1919    8.376169e+09 8.1946e+09  2.17%   5.7   25s
H15001 12490                    8.376166e+09 8.1946e+09  2.17%   5.7   26s
 17517 14792 8.2189e+09  405   25 8.3762e+09 8.1946e+09  2.17%   6.1   30s
 22310 19112 8.2144e+09  782   28 8.3762e+09 8.1946e+09  2.17%   6.2   35s
 25143 21866 8.2123e+09  406   24 8.3762e+09 8.1946e+09  2.17%   6.4   40s
H26073 22741                    8.375572e+09 8.1946e+09  2.16%   6.4   42s
H26475 23143                    8.375379e+09 8.1946e+09  2.16%   6.4   42s
 28494 24983 8.1963e+09  424   25 8.3754e+09 8.1946e+09  2.16%   6.2   45s
H31061 27516                    8.375293e+09 8.1946e+09  2.16%   6.1   47s
 32316 28743 8.1956e+09 2438   23 8.3753e+09 8.1946e+09  2.16%   6.3   50s
H35285 31406                    8.375220e+09 8.1946e+09  2.16%   6.3   53s
 36677 32800 8.1964e+09 2104   26 8.3752e+09 8.1946e+09  2.16%   6.4   55s
 40244 36166 8.1948e+09  893   21 8.3752e+09 8.1946e+09  2.16%   6.5   60s
H43071 38834                    8.375204e+09 8.1946e+09  2.16%   6.6   63s
H43652 39415                    8.374739e+09 8.1946e+09  2.15%   6.6   64s
 44185 39950 8.1959e+09 2074   24 8.3747e+09 8.1946e+09  2.15%   6.6   65s
H44373 40095                    8.368745e+09 8.1946e+09  2.08%   6.6   65s
H44629 40100                    8.345776e+09 8.1946e+09  1.81%   6.6   65s
 48227 43633 8.1949e+09 1828   21 8.3458e+09 8.1946e+09  1.81%   6.6   70s
 51706 46950 8.1959e+09 1122   24 8.3458e+09 8.1946e+09  1.81%   6.7   75s
H53664 48868                    8.345690e+09 8.1946e+09  1.81%   6.7   77s
H55018 50219                    8.344346e+09 8.1946e+09  1.79%   6.7   79s
 55466 50667 8.1951e+09  795   21 8.3443e+09 8.1946e+09  1.79%   6.7   80s
H57804 52896                    8.344308e+09 8.1946e+09  1.79%   6.6   82s
H58352 53442                    8.344148e+09 8.1946e+09  1.79%   6.7   83s
 59028 54066 8.1955e+09  614   22 8.3441e+09 8.1946e+09  1.79%   6.7   85s
H59549 54583                    8.344148e+09 8.1946e+09  1.79%   6.7   85s
H60029 55062                    8.343713e+09 8.1946e+09  1.79%   6.7   86s
H60529 55552                    8.340198e+09 8.1946e+09  1.75%   6.6   87s
 63010 57967 8.1961e+09  907   25 8.3402e+09 8.1946e+09  1.75%   6.7   90s
 66317 61222 8.1954e+09 2210   24 8.3402e+09 8.1946e+09  1.75%   6.8   95s
 70572 65402 8.1961e+09  844   25 8.3402e+09 8.1946e+09  1.75%   6.7  100s
H72347 67124                    8.339660e+09 8.1946e+09  1.74%   6.8  103s
 73246 68023 8.1971e+09 1504   24 8.3397e+09 8.1946e+09  1.74%   6.8  105s
H73477 68252                    8.339658e+09 8.1946e+09  1.74%   6.8  105s
H74001 68715                    8.336780e+09 8.1946e+09  1.71%   6.8  106s
 76671 71322 8.1961e+09 1063   24 8.3368e+09 8.1946e+09  1.71%   6.8  110s
 80566 75114 8.1961e+09  669   25 8.3368e+09 8.1946e+09  1.71%   6.8  115s
 84171 78497 8.1948e+09  833   25 8.3368e+09 8.1946e+09  1.71%   6.8  120s
 87518 81785 8.1954e+09  573   23 8.3368e+09 8.1946e+09  1.71%   6.8  125s
H88244 82490                    8.336594e+09 8.1946e+09  1.70%   6.8  125s
 91568 85731 8.1948e+09  625   24 8.3366e+09 8.1946e+09  1.70%   6.8  130s
 95412 89510 8.1966e+09 2377   23 8.3366e+09 8.1946e+09  1.70%   6.8  135s
 99046 93057 8.1990e+09 2104   24 8.3366e+09 8.1946e+09  1.70%   6.9  140s
 104009 97937 8.1955e+09 1449   26 8.3366e+09 8.1946e+09  1.70%   6.8  145s
H104086 98012                    8.336587e+09 8.1946e+09  1.70%   6.8  145s
 107739 101615 8.1964e+09  621   20 8.3366e+09 8.1946e+09  1.70%   6.9  150s
 111434 105224 8.1963e+09 2225   24 8.3366e+09 8.1946e+09  1.70%   6.8  155s
H113723 107398                    8.336587e+09 8.1946e+09  1.70%   6.9  157s
 115331 109008 8.1958e+09  988   21 8.3366e+09 8.1946e+09  1.70%   6.9  160s
 119677 113072 8.1946e+09 1571   25 8.3366e+09 8.1946e+09  1.70%   6.8  165s
H121499 114798                    8.336537e+09 8.1946e+09  1.70%   6.8  168s
 122373 115674 8.1946e+09  950   23 8.3365e+09 8.1946e+09  1.70%   6.8  170s
 125442 118324 8.1946e+09  727   22 8.3365e+09 8.1946e+09  1.70%   6.8  175s
 129375 121970 8.1946e+09 1160   24 8.3365e+09 8.1946e+09  1.70%   6.9  180s
 131744 124217 8.1946e+09 1002   23 8.3365e+09 8.1946e+09  1.70%   6.9  185s
 134288 126651 8.1946e+09 1301   25 8.3365e+09 8.1946e+09  1.70%   6.8  190s
 136985 129126 8.1946e+09 1178   23 8.3365e+09 8.1946e+09  1.70%   6.9  195s
 139973 131949 8.1946e+09 1272   23 8.3365e+09 8.1946e+09  1.70%   6.8  200s
 142770 134477 8.1946e+09 1480   26 8.3365e+09 8.1946e+09  1.70%   6.8  205s
 145586 137143 8.1946e+09 1254   25 8.3365e+09 8.1946e+09  1.70%   6.8  210s
 148231 139612 infeasible 1325      8.3365e+09 8.1946e+09  1.70%   6.8  215s
 150597 141500 8.1946e+09 1565   25 8.3365e+09 8.1946e+09  1.70%   6.8  220s
 154230 144923 8.1946e+09 1216   22 8.3365e+09 8.1946e+09  1.70%   6.8  225s
 157820 148121 8.1946e+09 1223   24 8.3365e+09 8.1946e+09  1.70%   6.8  230s
H159401 149528                    8.336530e+09 8.1946e+09  1.70%   6.8  231s
 161735 151646 8.1946e+09 1221   26 8.3365e+09 8.1946e+09  1.70%   6.8  235s
 165310 155010 8.1946e+09 1450   22 8.3365e+09 8.1946e+09  1.70%   6.8  240s
 168170 157496 8.1946e+09 1213   23 8.3365e+09 8.1946e+09  1.70%   6.8  245s
 171808 160642 8.1946e+09 1524   20 8.3365e+09 8.1946e+09  1.70%   6.8  250s
 174305 162480 8.1946e+09 1634   20 8.3365e+09 8.1946e+09  1.70%   6.9  255s
 177630 164751 8.1946e+09 1676   20 8.3365e+09 8.1946e+09  1.70%   6.8  260s
 180664 165239 8.1946e+09 1678   20 8.3365e+09 8.1946e+09  1.70%   6.9  265s
 184364 166719 8.1946e+09 1661   20 8.3365e+09 8.1946e+09  1.70%   6.9  270s
 188333 168433 8.1946e+09 1675   19 8.3365e+09 8.1946e+09  1.70%   6.8  275s
 192365 169799 8.1946e+09 1711   19 8.3365e+09 8.1946e+09  1.70%   6.8  280s
 195560 170623 infeasible 1725      8.3365e+09 8.1946e+09  1.70%   6.8  285s
 198913 170924 infeasible 1738      8.3365e+09 8.1946e+09  1.70%   6.8  290s
 202330 171219 infeasible 1726      8.3365e+09 8.1946e+09  1.70%   6.8  295s
 205206 171707 infeasible 1720      8.3365e+09 8.1946e+09  1.70%   6.8  300s
 208037 171816 infeasible 1714      8.3365e+09 8.1946e+09  1.70%   6.8  305s
H209218 171880                    8.336373e+09 8.1946e+09  1.70%   6.8  307s
 211007 172035 infeasible 1723      8.3364e+09 8.1946e+09  1.70%   6.8  310s
 214025 172055 8.1946e+09 1719   15 8.3364e+09 8.1946e+09  1.70%   6.9  315s
 216680 172420 8.1946e+09 1728   16 8.3364e+09 8.1946e+09  1.70%   6.9  320s
 219500 173063 8.1946e+09 1717   19 8.3364e+09 8.1946e+09  1.70%   6.9  325s
 222925 174144 8.1946e+09 1718   19 8.3364e+09 8.1946e+09  1.70%   6.9  330s
H224246 174497                    8.336357e+09 8.1946e+09  1.70%   6.9  332s
 226407 174942 8.1946e+09 1700   17 8.3364e+09 8.1946e+09  1.70%   6.9  335s
 229302 175394 infeasible 1725      8.3364e+09 8.1946e+09  1.70%   6.9  340s
 232457 175714 infeasible 1709      8.3364e+09 8.1946e+09  1.70%   6.9  345s
H233071 175832                    8.336350e+09 8.1946e+09  1.70%   6.9  346s
 235314 176055 infeasible 1735      8.3364e+09 8.1946e+09  1.70%   6.9  350s
 238424 176373 8.1946e+09 1720   17 8.3364e+09 8.1946e+09  1.70%   6.9  355s
 241286 176615 infeasible 1726      8.3364e+09 8.1946e+09  1.70%   6.9  360s
 244634 177303 8.1946e+09 1707   17 8.3364e+09 8.1946e+09  1.70%   6.9  365s
 246581 177720 8.1946e+09 1720   18 8.3364e+09 8.1946e+09  1.70%   6.9  370s
 248747 178348 infeasible 1717      8.3364e+09 8.1946e+09  1.70%   7.0  375s
 250904 178853 infeasible 1735      8.3364e+09 8.1946e+09  1.70%   7.0  380s
 253358 179847 8.1946e+09 1712   19 8.3364e+09 8.1946e+09  1.70%   6.9  385s
 255804 180577 8.1946e+09 1731   20 8.3364e+09 8.1946e+09  1.70%   6.9  390s
 258214 181350 8.1946e+09 1689   19 8.3364e+09 8.1946e+09  1.70%   6.9  395s
 260399 182091 8.1946e+09 1698   17 8.3364e+09 8.1946e+09  1.70%   6.9  400s
H262219 182800                    8.336263e+09 8.1946e+09  1.70%   6.9  404s
 262730 182873 8.1946e+09 1715   15 8.3363e+09 8.1946e+09  1.70%   6.9  405s
 265391 183112 8.1946e+09 1727   20 8.3363e+09 8.1946e+09  1.70%   6.9  410s
 267812 183383 infeasible 1718      8.3363e+09 8.1946e+09  1.70%   6.9  415s
 270125 184117 8.1946e+09 1684   20 8.3363e+09 8.1946e+09  1.70%   6.9  420s
 272319 184855 8.1946e+09 1732   18 8.3363e+09 8.1946e+09  1.70%   6.9  425s
 274587 185804 8.1946e+09 1694   16 8.3363e+09 8.1946e+09  1.70%   6.9  430s
 276881 186218 8.1946e+09 1709   19 8.3363e+09 8.1946e+09  1.70%   6.9  435s
H277661 186386                    8.335928e+09 8.1946e+09  1.70%   6.9  436s
 279115 186570 8.1946e+09 1728   19 8.3359e+09 8.1946e+09  1.70%   6.9  440s
 281339 186914 8.1946e+09 1708   19 8.3359e+09 8.1946e+09  1.70%   7.0  445s
 283628 187035 8.1946e+09 1719   16 8.3359e+09 8.1946e+09  1.70%   7.0  450s
 285957 187034 8.1946e+09 1729   17 8.3359e+09 8.1946e+09  1.70%   7.0  455s
 288201 187076 8.1946e+09 1717   17 8.3359e+09 8.1946e+09  1.70%   7.0  460s
H290314 187157                    8.335913e+09 8.1946e+09  1.69%   7.0  464s
 290341 187164 infeasible 1739      8.3359e+09 8.1946e+09  1.69%   7.0  465s
 292600 187181 infeasible 1723      8.3359e+09 8.1946e+09  1.69%   7.1  470s
 294850 187744 8.1946e+09 1723   16 8.3359e+09 8.1946e+09  1.69%   7.1  475s
 297586 188162 infeasible 1721      8.3359e+09 8.1946e+09  1.69%   7.1  480s
 299925 188547 infeasible 1719      8.3359e+09 8.1946e+09  1.69%   7.1  485s
 302543 188763 8.1946e+09 1729   18 8.3359e+09 8.1946e+09  1.69%   7.1  490s
 305045 188884 8.1946e+09 1734   18 8.3359e+09 8.1946e+09  1.69%   7.1  495s
 307663 188908 infeasible 1733      8.3359e+09 8.1946e+09  1.69%   7.0  500s
 310246 189003 infeasible 1729      8.3359e+09 8.1946e+09  1.69%   7.0  505s
 312843 189058 infeasible 1729      8.3359e+09 8.1946e+09  1.69%   7.0  510s
 315556 189137 8.1946e+09 1734   17 8.3359e+09 8.1946e+09  1.69%   7.0  515s
 318157 189200 infeasible 1727      8.3359e+09 8.1946e+09  1.69%   7.0  520s
 320543 189318 8.1946e+09 1730   18 8.3359e+09 8.1946e+09  1.69%   7.0  525s
 323060 189375 infeasible 1733      8.3359e+09 8.1946e+09  1.69%   7.0  530s
 325581 189426 infeasible 1733      8.3359e+09 8.1946e+09  1.69%   7.0  535s
 327961 189600 8.1946e+09 1731   16 8.3359e+09 8.1946e+09  1.69%   7.0  540s
 330044 190523 8.1946e+09 1701   18 8.3359e+09 8.1946e+09  1.69%   7.0  545s
 332416 191213 8.1946e+09 1758   16 8.3359e+09 8.1946e+09  1.69%   7.0  550s
H334448 191571                    8.335913e+09 8.1946e+09  1.69%   7.0  554s
 334888 191589 8.1946e+09 1722   17 8.3359e+09 8.1946e+09  1.69%   7.0  555s
 337396 191643 8.1946e+09 1723   16 8.3359e+09 8.1946e+09  1.69%   7.0  560s
 340048 191915 infeasible 1740      8.3359e+09 8.1946e+09  1.69%   7.0  565s
 343943 192040 infeasible 1733      8.3359e+09 8.1946e+09  1.69%   7.0  570s
H345979 192051                    8.335743e+09 8.1946e+09  1.69%   6.9  572s
 347792 192100 8.1946e+09 1724   19 8.3357e+09 8.1946e+09  1.69%   6.9  575s
 351852 192198 8.1946e+09 1724   18 8.3357e+09 8.1946e+09  1.69%   6.9  580s
 355710 192415 8.1946e+09 1712   16 8.3357e+09 8.1946e+09  1.69%   6.9  585s
 359870 192740 infeasible 1733      8.3357e+09 8.1946e+09  1.69%   6.9  590s
 364109 192877 8.1946e+09 1722   17 8.3357e+09 8.1946e+09  1.69%   6.9  595s
 367449 192981 8.1946e+09 1733   16 8.3357e+09 8.1946e+09  1.69%   6.9  600s
 371050 193913 8.1946e+09 1723   17 8.3357e+09 8.1946e+09  1.69%   6.9  605s
 374587 194319 8.1946e+09 1722   16 8.3357e+09 8.1946e+09  1.69%   6.9  610s
 378105 194548 infeasible 1722      8.3357e+09 8.1946e+09  1.69%   6.9  615s
 381330 194783 8.1946e+09 1724   16 8.3357e+09 8.1946e+09  1.69%   6.9  620s
 384488 195456 8.1946e+09 1701   18 8.3357e+09 8.1946e+09  1.69%   6.9  625s
 387720 195943 infeasible 1721      8.3357e+09 8.1946e+09  1.69%   6.9  630s
 390805 196172 8.1946e+09 1714   16 8.3357e+09 8.1946e+09  1.69%   6.9  635s
 394353 196693 8.1946e+09 1717   18 8.3357e+09 8.1946e+09  1.69%   6.9  640s
 397719 196877 infeasible 1712      8.3357e+09 8.1946e+09  1.69%   6.9  645s
 401360 197173 8.1946e+09 1721   16 8.3357e+09 8.1946e+09  1.69%   6.9  650s
 404736 197382 infeasible 1725      8.3357e+09 8.1946e+09  1.69%   6.9  655s
 407880 197576 8.1946e+09 1727   16 8.3357e+09 8.1946e+09  1.69%   6.9  660s
 410596 197841 8.1946e+09 1728   18 8.3357e+09 8.1946e+09  1.69%   7.0  665s
 413647 197941 8.1946e+09 1727   15 8.3357e+09 8.1946e+09  1.69%   7.0  670s
 416184 198216 8.1946e+09 1723   17 8.3357e+09 8.1946e+09  1.69%   7.0  675s
H416309 198231                    8.335739e+09 8.1946e+09  1.69%   7.1  675s
 418873 198335 infeasible 1722      8.3357e+09 8.1946e+09  1.69%   7.1  680s
 421549 198423 8.1946e+09 1698   14 8.3357e+09 8.1946e+09  1.69%   7.1  685s
 424381 198705 8.1946e+09 1723   18 8.3357e+09 8.1946e+09  1.69%   7.2  690s
 427137 199085 8.1946e+09 1710   17 8.3357e+09 8.1946e+09  1.69%   7.2  695s
 430356 199343 8.1946e+09 1719   20 8.3357e+09 8.1946e+09  1.69%   7.2  700s
 433071 199583 8.1946e+09 1709   19 8.3357e+09 8.1946e+09  1.69%   7.2  705s
 435721 200162 8.1946e+09 1724   16 8.3357e+09 8.1946e+09  1.69%   7.2  710s
 437861 200280 infeasible 1725      8.3357e+09 8.1946e+09  1.69%   7.2  715s
 441491 200553 8.1946e+09 1736   16 8.3357e+09 8.1946e+09  1.69%   7.2  720s
 444843 200869 8.1946e+09 1691   18 8.3357e+09 8.1946e+09  1.69%   7.2  725s
 448239 201635 8.1946e+09 1719   19 8.3357e+09 8.1946e+09  1.69%   7.2  730s
 451440 202208 8.1946e+09 1723   16 8.3357e+09 8.1946e+09  1.69%   7.2  735s
 454796 202420 8.1946e+09 1732   17 8.3357e+09 8.1946e+09  1.69%   7.3  740s
 457655 202765 8.1946e+09 1702   17 8.3357e+09 8.1946e+09  1.69%   7.3  745s
 460927 203348 infeasible 1723      8.3357e+09 8.1946e+09  1.69%   7.3  750s
H462194 203486                    8.335717e+09 8.1946e+09  1.69%   7.3  751s
 463904 203681 8.1946e+09 1701   17 8.3357e+09 8.1946e+09  1.69%   7.3  755s
 467400 204150 8.1946e+09 1706   17 8.3357e+09 8.1946e+09  1.69%   7.3  760s
 471214 204408 8.1946e+09 1731   16 8.3357e+09 8.1946e+09  1.69%   7.3  765s
 474589 204533 infeasible 1736      8.3357e+09 8.1946e+09  1.69%   7.3  770s
 478268 204612 8.1946e+09 1723   14 8.3357e+09 8.1946e+09  1.69%   7.3  775s
 481969 204823 8.1946e+09 1724   14 8.3357e+09 8.1946e+09  1.69%   7.3  780s
 485427 204999 8.1946e+09 1730   15 8.3357e+09 8.1946e+09  1.69%   7.4  785s
 489242 205184 infeasible 1714      8.3357e+09 8.1946e+09  1.69%   7.4  790s
 493313 205449 infeasible 1739      8.3357e+09 8.1946e+09  1.69%   7.4  795s
H496807 205659                    8.335714e+09 8.1946e+09  1.69%   7.4  799s
 496855 205667 infeasible 1739      8.3357e+09 8.1946e+09  1.69%   7.4  800s
 499630 205772 8.1946e+09 1730   15 8.3357e+09 8.1946e+09  1.69%   7.4  805s
 501973 205833 8.1946e+09 1721   17 8.3357e+09 8.1946e+09  1.69%   7.4  810s
 505322 205966 8.1946e+09 1728   14 8.3357e+09 8.1946e+09  1.69%   7.4  815s
 508487 206277 infeasible 1735      8.3357e+09 8.1946e+09  1.69%   7.4  820s
 511790 206370 infeasible 1740      8.3357e+09 8.1946e+09  1.69%   7.4  825s
 514772 206508 8.1946e+09 1738   16 8.3357e+09 8.1946e+09  1.69%   7.4  830s
 517953 206609 infeasible 1740      8.3357e+09 8.1946e+09  1.69%   7.4  835s
 520506 206762 8.1946e+09 1744   16 8.3357e+09 8.1946e+09  1.69%   7.4  840s
 523137 206775 8.1946e+09 1735   14 8.3357e+09 8.1946e+09  1.69%   7.4  845s
 527093 207004 infeasible 1743      8.3357e+09 8.1946e+09  1.69%   7.4  850s
 530585 207188 infeasible 1738      8.3357e+09 8.1946e+09  1.69%   7.4  855s
 533666 207245 8.1946e+09 1729   15 8.3357e+09 8.1946e+09  1.69%   7.4  860s
 536052 207379 8.1946e+09 1722   16 8.3357e+09 8.1946e+09  1.69%   7.4  865s
 538720 207377 8.1946e+09 1735   15 8.3357e+09 8.1946e+09  1.69%   7.4  870s
 541551 207454 8.1946e+09 1730   14 8.3357e+09 8.1946e+09  1.69%   7.4  875s
 543970 207451 infeasible 1731      8.3357e+09 8.1946e+09  1.69%   7.4  880s
 545887 207516 infeasible 1730      8.3357e+09 8.1946e+09  1.69%   7.4  885s
 548312 207552 infeasible 1717      8.3357e+09 8.1946e+09  1.69%   7.4  890s
 550876 207684 8.1946e+09 1723   14 8.3357e+09 8.1946e+09  1.69%   7.5  895s
 553122 207694 8.1946e+09 1728   14 8.3357e+09 8.1946e+09  1.69%   7.5  900s
 555814 207880 8.1946e+09 1729   17 8.3357e+09 8.1946e+09  1.69%   7.5  905s
 559320 208816 8.1946e+09 1714   18 8.3357e+09 8.1946e+09  1.69%   7.5  910s
 562600 209346 8.1946e+09 1700   16 8.3357e+09 8.1946e+09  1.69%   7.5  915s
 565179 209777 8.1946e+09 1710   19 8.3357e+09 8.1946e+09  1.69%   7.5  920s
 567526 210004 8.1946e+09 1720   17 8.3357e+09 8.1946e+09  1.69%   7.5  925s
 569941 210123 8.1946e+09 1707   19 8.3357e+09 8.1946e+09  1.69%   7.5  930s
 572561 210741 8.1946e+09 1714   19 8.3357e+09 8.1946e+09  1.69%   7.5  935s
 575258 211288 infeasible 1720      8.3357e+09 8.1946e+09  1.69%   7.5  940s
 579089 212400 8.1946e+09 1694   19 8.3357e+09 8.1946e+09  1.69%   7.4  945s
 583100 214115 8.1946e+09 1708   19 8.3357e+09 8.1946e+09  1.69%   7.4  950s
 587239 215594 8.1946e+09 1710   18 8.3357e+09 8.1946e+09  1.69%   7.4  955s
 590622 216163 8.1946e+09 1729   16 8.3357e+09 8.1946e+09  1.69%   7.4  960s
 594272 216520 8.1946e+09 1721   19 8.3357e+09 8.1946e+09  1.69%   7.4  965s
 598058 217017 8.1946e+09 1720   19 8.3357e+09 8.1946e+09  1.69%   7.4  970s
 602252 217325 8.1946e+09 1707   16 8.3357e+09 8.1946e+09  1.69%   7.4  975s
 605210 217639 infeasible 1733      8.3357e+09 8.1946e+09  1.69%   7.4  980s
 608578 218089 8.1946e+09 1720   17 8.3357e+09 8.1946e+09  1.69%   7.4  985s
 612182 218513 infeasible 1711      8.3357e+09 8.1946e+09  1.69%   7.4  990s
 616135 218926 8.1946e+09 1726   19 8.3357e+09 8.1946e+09  1.69%   7.4  995s

Cutting planes:
  Gomory: 7
  MIR: 1
  Flow cover: 1

Explored 619811 nodes (4609310 simplex iterations) in 1000.02 seconds
Thread count was 1 (of 8 available processors)

Time limit reached
Best objective 8.335714164000e+09, best bound 8.194627455000e+09, gap 1.6926%
